#######################################
### Exact MIP solver for the HHCRSP ###
#######################################
-- Instance file: new-instances/HHCRSP_75_15_81_0.8_R_RC.txt
-- Max threads: 4
-- Time limit: 999999 seconds
-- Use initial solution: No
Trivial flow violations prevented generating 19884 variables.
Model exported.
Version identifier: 20.1.0.0 | 2020-11-10 | 9bedb6d68
CPXPARAM_Threads                                 4
CPXPARAM_TimeLimit                               999999
Parallel mode: deterministic, using up to 4 threads for concurrent optimization:
 * Starting dual Simplex on 1 thread...
 * Starting Barrier on 3 threads...
Tried aggregator 1 time.
LP Presolve eliminated 2796 rows and 585 columns.
Reduced LP has 18344 rows, 17655 columns, and 175340 nonzeros.
Presolve time = 0.08 sec. (48.35 ticks)
Symmetry aggregator did 15539 additional substitutions.

Iteration log . . .
Iteration:     1   Dual objective     =             0.000000
Iteration:   328   Dual objective     =           154.337700

Dual crossover.
  Dual:  Fixing 123 variables.
      122 DMoves:  Infeasibility  5.21757926e-14  Objective  1.54337700e+02
        0 DMoves:  Infeasibility  2.47532839e-14  Objective  1.54337700e+02
  Dual:  Pushed 4, exchanged 119.
  Primal:  Fixing 86 variables.
       85 PMoves:  Infeasibility  0.00000000e+00  Objective  1.54337700e+02
        0 PMoves:  Infeasibility  0.00000000e+00  Objective  1.54337700e+02
  Primal:  Pushed 53, exchanged 33.

Dual simplex solved model.


Solution status from MIP model:
-- Processing time: 0.159 sec.
-- Memory used: 82.0928 MB
-- Best bound: inf
-- Obj value: 154.338
-- Gap: inf%
-- Total distance: 463.013
-- Total tardiness: 0
-- Largest tardiness: 0
